Running for instance ./models/c202.txt
Generating routes...
Execution time:  0.166987266667  minutes
Academic license - for non-commercial use only
Warning: constraint name "Cliente esta na rota" has a space
Optimize a model with 26 rows, 5000 columns and 37606 nonzeros
Variable types: 0 continuous, 5000 integer (0 binary)
Coefficient statistics:
  Matrix range     [1e+00, 1e+00]
  Objective range  [4e+01, 2e+02]
  Bounds range     [1e+00, 1e+00]
  RHS range        [1e+00, 2e+01]
Found heuristic solution: objective 856.8879874
Presolve removed 0 rows and 182 columns
Presolve time: 0.03s
Presolved: 26 rows, 4818 columns, 36289 nonzeros
Variable types: 0 continuous, 4818 integer (4818 binary)

Root relaxation: objective 3.488545e+02, 88 iterations, 0.01 seconds

    Nodes    |    Current Node    |     Objective Bounds      |     Work
 Expl Unexpl |  Obj  Depth IntInf | Incumbent    BestBd   Gap | It/Node Time

     0     0  348.85453    0   25  856.88799  348.85453  59.3%     -    0s
H    0     0                     427.7315399  348.85453  18.4%     -    0s
H    0     0                     418.5259440  348.85453  16.6%     -    0s
     0     0  353.74791    0   28  418.52594  353.74791  15.5%     -    0s
     0     0  354.30529    0   31  418.52594  354.30529  15.3%     -    0s
     0     0  354.59063    0   33  418.52594  354.59063  15.3%     -    0s
     0     0  355.20997    0   33  418.52594  355.20997  15.1%     -    0s
     0     0  355.59722    0   31  418.52594  355.59722  15.0%     -    0s
     0     0  355.61125    0   32  418.52594  355.61125  15.0%     -    0s
     0     0  355.72910    0   34  418.52594  355.72910  15.0%     -    0s
     0     0  356.62306    0   34  418.52594  356.62306  14.8%     -    0s
     0     0  356.62306    0   25  418.52594  356.62306  14.8%     -    0s
H    0     0                     384.4100658  356.62306  7.23%     -    0s
     0     0  356.62306    0   28  384.41007  356.62306  7.23%     -    0s
     0     0  356.62306    0   25  384.41007  356.62306  7.23%     -    0s
     0     0  356.62306    0   26  384.41007  356.62306  7.23%     -    0s
     0     0  356.62306    0   29  384.41007  356.62306  7.23%     -    0s
     0     0  356.62306    0   32  384.41007  356.62306  7.23%     -    0s
     0     0  356.62306    0   33  384.41007  356.62306  7.23%     -    0s
     0     0  356.76604    0   32  384.41007  356.76604  7.19%     -    0s
     0     0  356.93871    0   31  384.41007  356.93871  7.15%     -    0s
     0     0  356.95970    0   32  384.41007  356.95970  7.14%     -    0s
     0     0  357.03021    0   31  384.41007  357.03021  7.12%     -    0s
     0     0  359.90950    0   34  384.41007  359.90950  6.37%     -    0s
     0     0  360.86622    0   36  384.41007  360.86622  6.12%     -    0s
     0     0  362.08148    0   25  384.41007  362.08148  5.81%     -    0s
     0     0  362.08148    0   28  384.41007  362.08148  5.81%     -    0s
     0     0  362.08148    0   31  384.41007  362.08148  5.81%     -    0s
     0     0  362.08148    0   33  384.41007  362.08148  5.81%     -    0s
     0     0  362.08148    0   32  384.41007  362.08148  5.81%     -    0s
     0     0  362.08148    0   33  384.41007  362.08148  5.81%     -    0s
     0     0  362.08148    0   33  384.41007  362.08148  5.81%     -    0s
     0     0  362.08148    0   33  384.41007  362.08148  5.81%     -    0s
     0     0  362.08148    0   34  384.41007  362.08148  5.81%     -    0s
     0     0  362.08148    0   32  384.41007  362.08148  5.81%     -    0s
     0     0  362.08148    0   33  384.41007  362.08148  5.81%     -    0s
     0     0  362.08148    0   34  384.41007  362.08148  5.81%     -    0s
     0     0  366.42922    0   34  384.41007  366.42922  4.68%     -    0s
     0     0  366.62005    0   34  384.41007  366.62005  4.63%     -    0s
     0     2  366.62005    0   34  384.41007  366.62005  4.63%     -    0s

Cutting planes:
  MIR: 13
  Zero half: 4

Explored 269 nodes (5287 simplex iterations) in 0.87 seconds
Thread count was 8 (of 8 available processors)

Solution count 4: 384.41 418.526 427.732 856.888 

Optimal solution found (tolerance 1.00e-04)
Best objective 3.844100658112e+02, best bound 3.844100658112e+02, gap 0.0000%
20 21 24 6 10 5 2 7
22 23 18 19 16 12 13 9 1 11
4 14 15 17 25
Distance: 384.410065811
Execution time:  0.18724995  minutes
